% demand
num_movements = 31;
loading_factor = [1600, 1600, 1000, 850, 1250, 1550, 1550, 1000, 1300, 850, 1450, 1200, 1750, 1450, 1200, 800, 1400, 1700, 1950, 1700, 1950, 1350, 1200, 850, 1900, 1800, 1950, 900, 1800, 1700, 1200];
pickup_time = [0, 0, 0, 0, 0, 0, 0, 0, 2, 2, 2, 2, 4, 4, 4, 4, 5, 6, 6, 7, 7, 7, 7, 7, 7, 7, 8, 8, 8, 8, 8];
delivery_time = [1, 3, 2, 6, 1, 4, 6, 1, 4, 3, 4, 7, 6, 6, 6, 6, 6, 7, 7, 8, 8, 8, 8, 8, 8, 9, 9, 9, 9, 9, 9];

% transporter definition
total_capacity = 11000;
num_decks = 4;
capacity = [3000, 3000, 1000, 4000];

% ways out of decks
num_ways_out = 2;
paths_out = array3d(decks, ways_out, decks, [
% ways out of deck d1
2, 4, 0, 0, 3, 4, 0, 0, 

% ways out of deck d2
4, 0, 0, 0, 0, 0, 0, 0,	

% ways out of deck d3
4, 0, 0, 0, 0, 0, 0, 0,	

% ways out of deck d4
0, 0, 0, 0,	0, 0, 0, 0,	

]);

